78754.0
830, 1143, 1457, 1361, 1904, 599, 10, 216, 603, 121, 1322, 732, 1672, 1716, 347, 1333, 473, 1048, 1472, 379, 419, 426, 1873, 146, 1057, 1729, 1473, 657, 770, 1604, 945, 1485, 48, 1617, 1532, 1099, 273, 573, 1394, 1343, 743, 737, 1890, 134, 1591, 281, 494, 382, 1117, 1915, 1400, 703, 1548, 476, 855, 493, 824, 1654, 249, 1690, 53, 822, 1507, 736, 1615, 37, 1043, 1475, 610, 1953, 1864, 421, 1344, 845, 469, 1239, 1272, 989, 362, 992, 1248, 1353, 1900, 1692, 1997, 6, 612, 1246, 1664, 1031, 23, 775, 708, 786, 32, 1096, 1544, 1003, 1260, 1138, 60, 1158, 1463, 334, 1861, 1466, 937, 1549, 1567, 1034, 463, 446